#######################################
### Exact MIP solver for the HHCRSP ###
#######################################
-- Instance file: new-instances/HHCRSP_300_60_46_1.6_C_C.txt
-- Max threads: 4
-- Time limit: 999999 seconds
-- Use initial solution: No
Trivial flow violations prevented generating 1154477 variables.
Version identifier: 20.1.0.0 | 2020-11-10 | 9bedb6d68
CPXPARAM_Threads                                 4
CPXPARAM_TimeLimit                               999999
Parallel mode: deterministic, using up to 4 threads for concurrent optimization:
 * Starting dual Simplex on 1 thread...
 * Starting Barrier on 3 threads...
Tried aggregator 1 time.
LP Presolve eliminated 48336 rows and 12012 columns.
Reduced LP has 1371458 rows, 1304197 columns, and 31594640 nonzeros.
Presolve time = 36.14 sec. (6927.30 ticks)
Symmetry aggregator did 2289697 additional substitutions.

Iteration log . . .
Iteration:     1   Dual objective     =             0.000000
Iteration:  1334   Dual objective     =           258.000000

Dual crossover.
  Dual:  Fixing 1449 variables.
     1448 DMoves:  Infeasibility  7.68057843e-12  Objective  2.61000000e+02
        0 DMoves:  Infeasibility  3.47350855e-12  Objective  2.61000000e+02
  Dual:  Pushed 38, exchanged 1411.
  Primal:  Fixing 1610 variables.
     1609 PMoves:  Infeasibility  2.35922393e-15  Objective  2.61000000e+02
        0 PMoves:  Infeasibility  3.80251386e-15  Objective  2.61000000e+02
  Primal:  Pushed 1457, exchanged 153.

Dual simplex solved model.


Solution status from MIP model:
-- Processing time: 59.024 sec.
-- Memory used: 1207.61 MB
-- Best bound: inf
-- Obj value: 261
-- Gap: inf%
-- Total distance: 783
-- Total tardiness: 0
-- Largest tardiness: 0
